Input: forum-13crafb.prec25.dzn
============================================================
Total Runtime: 1.3887 seconds
Input parsing: 0.0036 seconds
Constraint building: 0.7198 seconds
MaxSAT solving: 0.1762 seconds
============================================================

Total variables: 223804
Total clauses: 473991
MaxSAT found with cost: N/A
NO SOLUTION FOUND
